NAME : ST69A
TYPE : PDTSP
DIMENSION : 69
EDGE_WEIGHT_TYPE : EUC_2D
NODE_COORD_SECTION
1 64 96
2 80 39
3 69 23
4 72 42
5 48 67
6 58 43
7 81 34
8 79 17
9 30 23
10 42 67
11 7 76
12 29 51
13 78 92
14 64 8
15 95 57
16 57 91
17 40 35
18 68 40
19 92 34
20 62 1
21 28 43
22 76 73
23 67 88
24 93 54
25 87 18
26 30 9
27 77 13
28 78 94
29 55 3
30 82 88
31 73 28
32 20 55
33 27 43
34 95 86
35 67 99
36 48 83
37 75 81
38 8 19
39 20 18
40 54 38
41 63 36
42 44 33
43 52 18
44 12 13
45 25 5
46 58 85
47 5 67
48 90 9
49 41 76
50 25 76
51 37 64
52 56 63
53 10 55
54 98 7
55 16 74
56 89 60
57 48 82
58 81 76
59 29 60
60 17 22
61 5 45
62 79 70
63 9 100
64 17 82
65 74 67
66 10 68
67 48 19
68 83 86
69 84 94
PICKUP_AND_DELIVERY_SECTION
1 0 0 0 0 0 0
2 0 0 0 0 0 25
3 0 0 0 0 8 0
4 0 0 0 0 0 31
5 0 0 0 0 51 0
6 0 0 0 0 42 0
7 0 0 0 0 0 34
8 0 0 0 0 0 3
9 0 0 0 0 0 17
10 0 0 0 0 0 49
11 0 0 0 0 0 55
12 0 0 0 0 32 0
13 0 0 0 0 0 28
14 0 0 0 0 0 33
15 0 0 0 0 0 19
16 0 0 0 0 0 57
17 0 0 0 0 9 0
18 0 0 0 0 0 54
19 0 0 0 0 15 0
20 0 0 0 0 41 0
21 0 0 0 0 0 39
22 0 0 0 0 56 0
23 0 0 0 0 0 46
24 0 0 0 0 35 0
25 0 0 0 0 2 0
26 0 0 0 0 0 60
27 0 0 0 0 0 48
28 0 0 0 0 13 0
29 0 0 0 0 43 0
30 0 0 0 0 69 0
31 0 0 0 0 4 0
32 0 0 0 0 0 12
33 0 0 0 0 14 0
34 0 0 0 0 7 0
35 0 0 0 0 0 24
36 0 0 0 0 52 0
37 0 0 0 0 0 65
38 0 0 0 0 66 0
39 0 0 0 0 21 0
40 0 0 0 0 0 67
41 0 0 0 0 0 20
42 0 0 0 0 0 6
43 0 0 0 0 0 29
44 0 0 0 0 0 45
45 0 0 0 0 44 0
46 0 0 0 0 23 0
47 0 0 0 0 0 59
48 0 0 0 0 27 0
49 0 0 0 0 10 0
50 0 0 0 0 64 0
51 0 0 0 0 0 5
52 0 0 0 0 0 36
53 0 0 0 0 0 61
54 0 0 0 0 18 0
55 0 0 0 0 11 0
56 0 0 0 0 0 22
57 0 0 0 0 16 0
58 0 0 0 0 0 62
59 0 0 0 0 47 0
60 0 0 0 0 26 0
61 0 0 0 0 53 0
62 0 0 0 0 58 0
63 0 0 0 0 68 0
64 0 0 0 0 0 50
65 0 0 0 0 37 0
66 0 0 0 0 0 38
67 0 0 0 0 40 0
68 0 0 0 0 0 63
69 0 0 0 0 0 30
DEPOT_SECTION
1 
-1
EOF
